; benchmark generated from python API
(set-info :status unknown)
(declare-fun x_epoch () Int)
(declare-fun y_epoch () Int)
(declare-fun x_plus_epoch () Int)
(declare-fun x_plus_month () Int)
(declare-fun x_plus_year () Int)
(declare-fun x_plus_day () Int)
(declare-fun x_plus_1_epoch () Int)
(assert
 (>= x_epoch (- 36584)))
(assert
 (<= x_epoch 36829))
(assert
 (>= y_epoch (- 36584)))
(assert
 (<= y_epoch 36829))
(assert
 (>= x_epoch 7244))
(assert
 (<= x_epoch 7276))
(assert
 (>= x_plus_epoch (- 36584)))
(assert
 (<= x_plus_epoch 36829))
(assert
 (let (($x693 (= x_plus_month 11)))
 (let (($x713 (= x_plus_month 9)))
 (let (($x734 (= x_plus_month 6)))
 (let (($x787 (= x_plus_month 4)))
 (let ((?x538 (ite (or $x787 $x734 $x713 $x693) 30 31)))
 (let (($x917 (= (mod x_plus_year 400) 0)))
 (let (($x1206 (= (mod x_plus_year 4) 0)))
 (let (($x916 (or (and $x1206 (and (distinct (mod x_plus_year 100) 0) true)) $x917)))
 (let (($x309 (= x_plus_month 2)))
 (let (($x311 (>= x_plus_day 1)))
 (let (($x1018 (<= x_plus_month 12)))
 (let (($x919 (>= x_plus_month 1)))
 (let (($x1568 (<= x_plus_year 2100)))
 (let (($x830 (>= x_plus_year 1900)))
 (and $x830 $x1568 $x919 $x1018 $x311 (<= x_plus_day (ite $x309 (ite $x916 29 28) ?x538))))))))))))))))))
(assert
 (let (($x917 (= (mod x_plus_year 400) 0)))
 (let (($x1206 (= (mod x_plus_year 4) 0)))
 (let (($x916 (or (and $x1206 (and (distinct (mod x_plus_year 100) 0) true)) $x917)))
 (let ((?x977 (ite (= 2 x_plus_month) (ite $x916 31 31) (ite (= 1 x_plus_month) (ite $x916 0 0) 0))))
 (let ((?x828 (ite (= 4 x_plus_month) (ite $x916 91 90) (ite (= 3 x_plus_month) (ite $x916 60 59) ?x977))))
 (let ((?x1029 (ite (= 6 x_plus_month) (ite $x916 152 151) (ite (= 5 x_plus_month) (ite $x916 121 120) ?x828))))
 (let ((?x1412 (ite (= 8 x_plus_month) (ite $x916 213 212) (ite (= 7 x_plus_month) (ite $x916 182 181) ?x1029))))
 (let ((?x1137 (ite (= 10 x_plus_month) (ite $x916 274 273) (ite (= 9 x_plus_month) (ite $x916 244 243) ?x1412))))
 (let ((?x913 (ite (= 12 x_plus_month) (ite $x916 335 334) (ite (= 11 x_plus_month) (ite $x916 305 304) ?x1137))))
 (let ((?x1037 (+ (* 365 (- x_plus_year 1)) (div (- x_plus_year 1) 4))))
 (let ((?x1050 (+ (- ?x1037 (div (- x_plus_year 1) 100)) (div (- x_plus_year 1) 400))))
 (= x_plus_epoch (- (+ (+ ?x1050 ?x913) (- x_plus_day 1)) 730179))))))))))))))
(assert
 (let ((?x301 (+ x_epoch 730179)))
 (let ((?x682 (mod ?x301 146097)))
 (let ((?x605 (div ?x682 36524)))
 (let ((?x1366 (ite (<= 4 ?x605) 3 ?x605)))
 (let ((?x1092 (- ?x682 (* ?x1366 36524))))
 (let ((?x285 (mod ?x1092 1461)))
 (let ((?x1373 (div ?x285 365)))
 (let ((?x335 (ite (<= 4 ?x1373) 3 ?x1373)))
 (let ((?x750 (+ (+ (* (div ?x301 146097) 400) (* ?x1366 100)) (* (div ?x1092 1461) 4))))
 (let ((?x1278 (+ (+ ?x750 ?x335) 1)))
 (let (($x217 (or (and (= (mod ?x1278 4) 0) (and (distinct (mod ?x1278 100) 0) true)) (= (mod ?x1278 400) 0))))
 (let ((?x598 (- ?x285 (* ?x335 365))))
 (let ((?x1242 (ite $x217 31 31)))
 (let (($x1094 (>= ?x598 ?x1242)))
 (let ((?x1190 (ite $x1094 (+ (- ?x598 ?x1242) 1) (+ (- ?x598 (ite $x217 0 0)) 1))))
 (let ((?x620 (ite $x217 60 59)))
 (let (($x271 (>= ?x598 ?x620)))
 (let ((?x1332 (ite $x217 91 90)))
 (let (($x1089 (>= ?x598 ?x1332)))
 (let ((?x334 (ite $x1089 (+ (- ?x598 ?x1332) 1) (ite $x271 (+ (- ?x598 ?x620) 1) ?x1190))))
 (let ((?x1079 (ite $x217 121 120)))
 (let (($x336 (>= ?x598 ?x1079)))
 (let ((?x1330 (ite $x217 152 151)))
 (let (($x415 (>= ?x598 ?x1330)))
 (let ((?x1087 (ite $x415 (+ (- ?x598 ?x1330) 1) (ite $x336 (+ (- ?x598 ?x1079) 1) ?x334))))
 (let ((?x1170 (ite $x217 182 181)))
 (let (($x1246 (>= ?x598 ?x1170)))
 (let ((?x1214 (ite $x217 213 212)))
 (let (($x1198 (>= ?x598 ?x1214)))
 (let ((?x547 (ite $x1198 (+ (- ?x598 ?x1214) 1) (ite $x1246 (+ (- ?x598 ?x1170) 1) ?x1087))))
 (let ((?x1093 (ite $x217 244 243)))
 (let (($x333 (>= ?x598 ?x1093)))
 (let ((?x1194 (ite $x217 274 273)))
 (let (($x1162 (>= ?x598 ?x1194)))
 (let ((?x1371 (ite $x1162 (+ (- ?x598 ?x1194) 1) (ite $x333 (+ (- ?x598 ?x1093) 1) ?x547))))
 (let ((?x212 (ite $x217 305 304)))
 (let (($x1369 (>= ?x598 ?x212)))
 (let ((?x1238 (ite $x217 335 334)))
 (let (($x591 (>= ?x598 ?x1238)))
 (let ((?x210 (ite $x591 (+ (- ?x598 ?x1238) 1) (ite $x1369 (+ (- ?x598 ?x212) 1) ?x1371))))
 (let ((?x472 (+ (* 1 12) 0)))
 (let ((?x992 (ite $x336 5 (ite $x1089 4 (ite $x271 3 (ite $x1094 2 1))))))
 (let ((?x332 (ite $x333 9 (ite $x1198 8 (ite $x1246 7 (ite $x415 6 ?x992))))))
 (let ((?x1370 (ite $x591 12 (ite $x1369 11 (ite $x1162 10 ?x332)))))
 (let ((?x4800 (+ ?x1370 ?x472)))
 (let ((?x1495 (- ?x4800 1)))
 (let ((?x3683 (+ (mod ?x1495 12) 1)))
 (let ((?x3094 (ite (or (= ?x3683 4) (= ?x3683 6) (= ?x3683 9) (= ?x3683 11)) 30 31)))
 (let (($x456 (and (= (mod (+ ?x1278 (+ 0 (div ?x1495 12))) 4) 0) (and (distinct (mod (+ ?x1278 (+ 0 (div ?x1495 12))) 100) 0) true))))
 (let (($x5008 (or $x456 (= (mod (+ ?x1278 (+ 0 (div ?x1495 12))) 400) 0))))
 (let ((?x1632 (ite (= ?x3683 2) (ite $x5008 29 28) ?x3094)))
 (let (($x701 (> 1 ?x210)))
 (let ((?x1132 (ite $x701 1 (ite (> ?x210 ?x1632) ?x1632 ?x210))))
 (let ((?x4381 (ite (> 1 ?x1132) 1 (ite (> ?x1132 ?x1632) ?x1632 ?x1132))))
 (let ((?x2137 (ite (= 2 ?x3683) (ite $x5008 31 31) (ite (= 1 ?x3683) (ite $x5008 0 0) 0))))
 (let ((?x4669 (ite (= 4 ?x3683) (ite $x5008 91 90) (ite (= 3 ?x3683) (ite $x5008 60 59) ?x2137))))
 (let ((?x1944 (ite (= 6 ?x3683) (ite $x5008 152 151) (ite (= 5 ?x3683) (ite $x5008 121 120) ?x4669))))
 (let ((?x4299 (ite (= 8 ?x3683) (ite $x5008 213 212) (ite (= 7 ?x3683) (ite $x5008 182 181) ?x1944))))
 (let ((?x2468 (ite (= 10 ?x3683) (ite $x5008 274 273) (ite (= 9 ?x3683) (ite $x5008 244 243) ?x4299))))
 (let ((?x2140 (ite (= 12 ?x3683) (ite $x5008 335 334) (ite (= 11 ?x3683) (ite $x5008 305 304) ?x2468))))
 (let ((?x3991 (+ (* 365 (- (+ ?x1278 (+ 0 (div ?x1495 12))) 1)) (div (- (+ ?x1278 (+ 0 (div ?x1495 12))) 1) 4))))
 (let ((?x4040 (+ (- ?x3991 (div (- (+ ?x1278 (+ 0 (div ?x1495 12))) 1) 100)) (div (- (+ ?x1278 (+ 0 (div ?x1495 12))) 1) 400))))
 (let ((?x3201 (+ (+ (- (+ (+ ?x4040 ?x2140) (- ?x4381 1)) 730179) 0) 730179)))
 (let ((?x4119 (mod ?x3201 146097)))
 (let ((?x2444 (div ?x4119 36524)))
 (let ((?x1646 (ite (<= 4 ?x2444) 3 ?x2444)))
 (let ((?x4365 (- ?x4119 (* ?x1646 36524))))
 (let ((?x2503 (mod ?x4365 1461)))
 (let ((?x3794 (div ?x2503 365)))
 (let ((?x3678 (ite (<= 4 ?x3794) 3 ?x3794)))
 (let ((?x2243 (+ (+ (* (div ?x3201 146097) 400) (* ?x1646 100)) (* (div ?x4365 1461) 4))))
 (let ((?x3712 (+ (+ ?x2243 ?x3678) 1)))
 (let ((?x3901 (+ 0 (div ?x1495 12))))
 (let ((?x3374 (+ ?x1278 ?x3901)))
 (let (($x1067 (= 0 0)))
 (let ((?x3302 (ite $x1067 ?x3374 ?x3712)))
 (= x_plus_year ?x3302))))))))))))))))))))))))))))))))))))))))))))))))))))))))))))))))))))))))))))))
(assert
 (let ((?x301 (+ x_epoch 730179)))
 (let ((?x682 (mod ?x301 146097)))
 (let ((?x605 (div ?x682 36524)))
 (let ((?x1366 (ite (<= 4 ?x605) 3 ?x605)))
 (let ((?x1092 (- ?x682 (* ?x1366 36524))))
 (let ((?x285 (mod ?x1092 1461)))
 (let ((?x1373 (div ?x285 365)))
 (let ((?x335 (ite (<= 4 ?x1373) 3 ?x1373)))
 (let ((?x750 (+ (+ (* (div ?x301 146097) 400) (* ?x1366 100)) (* (div ?x1092 1461) 4))))
 (let ((?x1278 (+ (+ ?x750 ?x335) 1)))
 (let (($x217 (or (and (= (mod ?x1278 4) 0) (and (distinct (mod ?x1278 100) 0) true)) (= (mod ?x1278 400) 0))))
 (let ((?x598 (- ?x285 (* ?x335 365))))
 (let ((?x1242 (ite $x217 31 31)))
 (let (($x1094 (>= ?x598 ?x1242)))
 (let ((?x1190 (ite $x1094 (+ (- ?x598 ?x1242) 1) (+ (- ?x598 (ite $x217 0 0)) 1))))
 (let ((?x620 (ite $x217 60 59)))
 (let (($x271 (>= ?x598 ?x620)))
 (let ((?x1332 (ite $x217 91 90)))
 (let (($x1089 (>= ?x598 ?x1332)))
 (let ((?x334 (ite $x1089 (+ (- ?x598 ?x1332) 1) (ite $x271 (+ (- ?x598 ?x620) 1) ?x1190))))
 (let ((?x1079 (ite $x217 121 120)))
 (let (($x336 (>= ?x598 ?x1079)))
 (let ((?x1330 (ite $x217 152 151)))
 (let (($x415 (>= ?x598 ?x1330)))
 (let ((?x1087 (ite $x415 (+ (- ?x598 ?x1330) 1) (ite $x336 (+ (- ?x598 ?x1079) 1) ?x334))))
 (let ((?x1170 (ite $x217 182 181)))
 (let (($x1246 (>= ?x598 ?x1170)))
 (let ((?x1214 (ite $x217 213 212)))
 (let (($x1198 (>= ?x598 ?x1214)))
 (let ((?x547 (ite $x1198 (+ (- ?x598 ?x1214) 1) (ite $x1246 (+ (- ?x598 ?x1170) 1) ?x1087))))
 (let ((?x1093 (ite $x217 244 243)))
 (let (($x333 (>= ?x598 ?x1093)))
 (let ((?x1194 (ite $x217 274 273)))
 (let (($x1162 (>= ?x598 ?x1194)))
 (let ((?x1371 (ite $x1162 (+ (- ?x598 ?x1194) 1) (ite $x333 (+ (- ?x598 ?x1093) 1) ?x547))))
 (let ((?x212 (ite $x217 305 304)))
 (let (($x1369 (>= ?x598 ?x212)))
 (let ((?x1238 (ite $x217 335 334)))
 (let (($x591 (>= ?x598 ?x1238)))
 (let ((?x210 (ite $x591 (+ (- ?x598 ?x1238) 1) (ite $x1369 (+ (- ?x598 ?x212) 1) ?x1371))))
 (let ((?x472 (+ (* 1 12) 0)))
 (let ((?x992 (ite $x336 5 (ite $x1089 4 (ite $x271 3 (ite $x1094 2 1))))))
 (let ((?x332 (ite $x333 9 (ite $x1198 8 (ite $x1246 7 (ite $x415 6 ?x992))))))
 (let ((?x1370 (ite $x591 12 (ite $x1369 11 (ite $x1162 10 ?x332)))))
 (let ((?x4800 (+ ?x1370 ?x472)))
 (let ((?x1495 (- ?x4800 1)))
 (let ((?x3683 (+ (mod ?x1495 12) 1)))
 (let ((?x3094 (ite (or (= ?x3683 4) (= ?x3683 6) (= ?x3683 9) (= ?x3683 11)) 30 31)))
 (let (($x456 (and (= (mod (+ ?x1278 (+ 0 (div ?x1495 12))) 4) 0) (and (distinct (mod (+ ?x1278 (+ 0 (div ?x1495 12))) 100) 0) true))))
 (let (($x5008 (or $x456 (= (mod (+ ?x1278 (+ 0 (div ?x1495 12))) 400) 0))))
 (let ((?x1632 (ite (= ?x3683 2) (ite $x5008 29 28) ?x3094)))
 (let (($x701 (> 1 ?x210)))
 (let ((?x1132 (ite $x701 1 (ite (> ?x210 ?x1632) ?x1632 ?x210))))
 (let ((?x4381 (ite (> 1 ?x1132) 1 (ite (> ?x1132 ?x1632) ?x1632 ?x1132))))
 (let ((?x2137 (ite (= 2 ?x3683) (ite $x5008 31 31) (ite (= 1 ?x3683) (ite $x5008 0 0) 0))))
 (let ((?x4669 (ite (= 4 ?x3683) (ite $x5008 91 90) (ite (= 3 ?x3683) (ite $x5008 60 59) ?x2137))))
 (let ((?x1944 (ite (= 6 ?x3683) (ite $x5008 152 151) (ite (= 5 ?x3683) (ite $x5008 121 120) ?x4669))))
 (let ((?x4299 (ite (= 8 ?x3683) (ite $x5008 213 212) (ite (= 7 ?x3683) (ite $x5008 182 181) ?x1944))))
 (let ((?x2468 (ite (= 10 ?x3683) (ite $x5008 274 273) (ite (= 9 ?x3683) (ite $x5008 244 243) ?x4299))))
 (let ((?x2140 (ite (= 12 ?x3683) (ite $x5008 335 334) (ite (= 11 ?x3683) (ite $x5008 305 304) ?x2468))))
 (let ((?x3991 (+ (* 365 (- (+ ?x1278 (+ 0 (div ?x1495 12))) 1)) (div (- (+ ?x1278 (+ 0 (div ?x1495 12))) 1) 4))))
 (let ((?x4040 (+ (- ?x3991 (div (- (+ ?x1278 (+ 0 (div ?x1495 12))) 1) 100)) (div (- (+ ?x1278 (+ 0 (div ?x1495 12))) 1) 400))))
 (let ((?x3201 (+ (+ (- (+ (+ ?x4040 ?x2140) (- ?x4381 1)) 730179) 0) 730179)))
 (let ((?x4119 (mod ?x3201 146097)))
 (let ((?x2444 (div ?x4119 36524)))
 (let ((?x1646 (ite (<= 4 ?x2444) 3 ?x2444)))
 (let ((?x4365 (- ?x4119 (* ?x1646 36524))))
 (let ((?x2503 (mod ?x4365 1461)))
 (let ((?x3794 (div ?x2503 365)))
 (let ((?x3678 (ite (<= 4 ?x3794) 3 ?x3794)))
 (let ((?x2243 (+ (+ (* (div ?x3201 146097) 400) (* ?x1646 100)) (* (div ?x4365 1461) 4))))
 (let ((?x3712 (+ (+ ?x2243 ?x3678) 1)))
 (let (($x4594 (or (and (= (mod ?x3712 4) 0) (and (distinct (mod ?x3712 100) 0) true)) (= (mod ?x3712 400) 0))))
 (let ((?x3091 (ite $x4594 31 31)))
 (let ((?x2872 (- ?x2503 (* ?x3678 365))))
 (let (($x4671 (>= ?x2872 ?x3091)))
 (let ((?x3097 (ite $x4594 60 59)))
 (let (($x3089 (>= ?x2872 ?x3097)))
 (let ((?x3871 (ite $x4594 91 90)))
 (let (($x2630 (>= ?x2872 ?x3871)))
 (let ((?x1403 (ite $x4594 121 120)))
 (let (($x2395 (>= ?x2872 ?x1403)))
 (let ((?x3338 (ite $x2395 5 (ite $x2630 4 (ite $x3089 3 (ite $x4671 2 1))))))
 (let ((?x2525 (ite $x4594 152 151)))
 (let (($x3262 (>= ?x2872 ?x2525)))
 (let ((?x4087 (ite $x4594 182 181)))
 (let (($x4355 (>= ?x2872 ?x4087)))
 (let ((?x3070 (ite $x4594 213 212)))
 (let (($x2400 (>= ?x2872 ?x3070)))
 (let ((?x3317 (ite $x4594 244 243)))
 (let (($x4359 (>= ?x2872 ?x3317)))
 (let ((?x4343 (ite $x4359 9 (ite $x2400 8 (ite $x4355 7 (ite $x3262 6 ?x3338))))))
 (let ((?x3334 (ite $x4594 274 273)))
 (let (($x2234 (>= ?x2872 ?x3334)))
 (let ((?x3240 (ite $x4594 305 304)))
 (let (($x4316 (>= ?x2872 ?x3240)))
 (let ((?x3088 (ite $x4594 335 334)))
 (let (($x4317 (>= ?x2872 ?x3088)))
 (let (($x1067 (= 0 0)))
 (let ((?x3213 (ite $x1067 ?x3683 (ite $x4317 12 (ite $x4316 11 (ite $x2234 10 ?x4343))))))
 (= x_plus_month ?x3213))))))))))))))))))))))))))))))))))))))))))))))))))))))))))))))))))))))))))))))))))))))))))))))))))))))
(assert
 (let ((?x301 (+ x_epoch 730179)))
 (let ((?x682 (mod ?x301 146097)))
 (let ((?x605 (div ?x682 36524)))
 (let ((?x1366 (ite (<= 4 ?x605) 3 ?x605)))
 (let ((?x1092 (- ?x682 (* ?x1366 36524))))
 (let ((?x285 (mod ?x1092 1461)))
 (let ((?x1373 (div ?x285 365)))
 (let ((?x335 (ite (<= 4 ?x1373) 3 ?x1373)))
 (let ((?x750 (+ (+ (* (div ?x301 146097) 400) (* ?x1366 100)) (* (div ?x1092 1461) 4))))
 (let ((?x1278 (+ (+ ?x750 ?x335) 1)))
 (let (($x217 (or (and (= (mod ?x1278 4) 0) (and (distinct (mod ?x1278 100) 0) true)) (= (mod ?x1278 400) 0))))
 (let ((?x598 (- ?x285 (* ?x335 365))))
 (let ((?x1242 (ite $x217 31 31)))
 (let (($x1094 (>= ?x598 ?x1242)))
 (let ((?x1190 (ite $x1094 (+ (- ?x598 ?x1242) 1) (+ (- ?x598 (ite $x217 0 0)) 1))))
 (let ((?x620 (ite $x217 60 59)))
 (let (($x271 (>= ?x598 ?x620)))
 (let ((?x1332 (ite $x217 91 90)))
 (let (($x1089 (>= ?x598 ?x1332)))
 (let ((?x334 (ite $x1089 (+ (- ?x598 ?x1332) 1) (ite $x271 (+ (- ?x598 ?x620) 1) ?x1190))))
 (let ((?x1079 (ite $x217 121 120)))
 (let (($x336 (>= ?x598 ?x1079)))
 (let ((?x1330 (ite $x217 152 151)))
 (let (($x415 (>= ?x598 ?x1330)))
 (let ((?x1087 (ite $x415 (+ (- ?x598 ?x1330) 1) (ite $x336 (+ (- ?x598 ?x1079) 1) ?x334))))
 (let ((?x1170 (ite $x217 182 181)))
 (let (($x1246 (>= ?x598 ?x1170)))
 (let ((?x1214 (ite $x217 213 212)))
 (let (($x1198 (>= ?x598 ?x1214)))
 (let ((?x547 (ite $x1198 (+ (- ?x598 ?x1214) 1) (ite $x1246 (+ (- ?x598 ?x1170) 1) ?x1087))))
 (let ((?x1093 (ite $x217 244 243)))
 (let (($x333 (>= ?x598 ?x1093)))
 (let ((?x1194 (ite $x217 274 273)))
 (let (($x1162 (>= ?x598 ?x1194)))
 (let ((?x1371 (ite $x1162 (+ (- ?x598 ?x1194) 1) (ite $x333 (+ (- ?x598 ?x1093) 1) ?x547))))
 (let ((?x212 (ite $x217 305 304)))
 (let (($x1369 (>= ?x598 ?x212)))
 (let ((?x1238 (ite $x217 335 334)))
 (let (($x591 (>= ?x598 ?x1238)))
 (let ((?x210 (ite $x591 (+ (- ?x598 ?x1238) 1) (ite $x1369 (+ (- ?x598 ?x212) 1) ?x1371))))
 (let ((?x472 (+ (* 1 12) 0)))
 (let ((?x992 (ite $x336 5 (ite $x1089 4 (ite $x271 3 (ite $x1094 2 1))))))
 (let ((?x332 (ite $x333 9 (ite $x1198 8 (ite $x1246 7 (ite $x415 6 ?x992))))))
 (let ((?x1370 (ite $x591 12 (ite $x1369 11 (ite $x1162 10 ?x332)))))
 (let ((?x4800 (+ ?x1370 ?x472)))
 (let ((?x1495 (- ?x4800 1)))
 (let ((?x3683 (+ (mod ?x1495 12) 1)))
 (let ((?x3094 (ite (or (= ?x3683 4) (= ?x3683 6) (= ?x3683 9) (= ?x3683 11)) 30 31)))
 (let (($x456 (and (= (mod (+ ?x1278 (+ 0 (div ?x1495 12))) 4) 0) (and (distinct (mod (+ ?x1278 (+ 0 (div ?x1495 12))) 100) 0) true))))
 (let (($x5008 (or $x456 (= (mod (+ ?x1278 (+ 0 (div ?x1495 12))) 400) 0))))
 (let ((?x1632 (ite (= ?x3683 2) (ite $x5008 29 28) ?x3094)))
 (let (($x701 (> 1 ?x210)))
 (let ((?x1132 (ite $x701 1 (ite (> ?x210 ?x1632) ?x1632 ?x210))))
 (let ((?x4381 (ite (> 1 ?x1132) 1 (ite (> ?x1132 ?x1632) ?x1632 ?x1132))))
 (let ((?x2137 (ite (= 2 ?x3683) (ite $x5008 31 31) (ite (= 1 ?x3683) (ite $x5008 0 0) 0))))
 (let ((?x4669 (ite (= 4 ?x3683) (ite $x5008 91 90) (ite (= 3 ?x3683) (ite $x5008 60 59) ?x2137))))
 (let ((?x1944 (ite (= 6 ?x3683) (ite $x5008 152 151) (ite (= 5 ?x3683) (ite $x5008 121 120) ?x4669))))
 (let ((?x4299 (ite (= 8 ?x3683) (ite $x5008 213 212) (ite (= 7 ?x3683) (ite $x5008 182 181) ?x1944))))
 (let ((?x2468 (ite (= 10 ?x3683) (ite $x5008 274 273) (ite (= 9 ?x3683) (ite $x5008 244 243) ?x4299))))
 (let ((?x2140 (ite (= 12 ?x3683) (ite $x5008 335 334) (ite (= 11 ?x3683) (ite $x5008 305 304) ?x2468))))
 (let ((?x3991 (+ (* 365 (- (+ ?x1278 (+ 0 (div ?x1495 12))) 1)) (div (- (+ ?x1278 (+ 0 (div ?x1495 12))) 1) 4))))
 (let ((?x4040 (+ (- ?x3991 (div (- (+ ?x1278 (+ 0 (div ?x1495 12))) 1) 100)) (div (- (+ ?x1278 (+ 0 (div ?x1495 12))) 1) 400))))
 (let ((?x3201 (+ (+ (- (+ (+ ?x4040 ?x2140) (- ?x4381 1)) 730179) 0) 730179)))
 (let ((?x4119 (mod ?x3201 146097)))
 (let ((?x2444 (div ?x4119 36524)))
 (let ((?x1646 (ite (<= 4 ?x2444) 3 ?x2444)))
 (let ((?x4365 (- ?x4119 (* ?x1646 36524))))
 (let ((?x2503 (mod ?x4365 1461)))
 (let ((?x3794 (div ?x2503 365)))
 (let ((?x3678 (ite (<= 4 ?x3794) 3 ?x3794)))
 (let ((?x2243 (+ (+ (* (div ?x3201 146097) 400) (* ?x1646 100)) (* (div ?x4365 1461) 4))))
 (let ((?x3712 (+ (+ ?x2243 ?x3678) 1)))
 (let (($x4594 (or (and (= (mod ?x3712 4) 0) (and (distinct (mod ?x3712 100) 0) true)) (= (mod ?x3712 400) 0))))
 (let ((?x2872 (- ?x2503 (* ?x3678 365))))
 (let ((?x3091 (ite $x4594 31 31)))
 (let (($x4671 (>= ?x2872 ?x3091)))
 (let ((?x3186 (ite $x4671 (+ (- ?x2872 ?x3091) 1) (+ (- ?x2872 (ite $x4594 0 0)) 1))))
 (let ((?x3097 (ite $x4594 60 59)))
 (let (($x3089 (>= ?x2872 ?x3097)))
 (let ((?x3871 (ite $x4594 91 90)))
 (let (($x2630 (>= ?x2872 ?x3871)))
 (let ((?x2642 (ite $x2630 (+ (- ?x2872 ?x3871) 1) (ite $x3089 (+ (- ?x2872 ?x3097) 1) ?x3186))))
 (let ((?x1403 (ite $x4594 121 120)))
 (let (($x2395 (>= ?x2872 ?x1403)))
 (let ((?x2525 (ite $x4594 152 151)))
 (let (($x3262 (>= ?x2872 ?x2525)))
 (let ((?x4283 (ite $x3262 (+ (- ?x2872 ?x2525) 1) (ite $x2395 (+ (- ?x2872 ?x1403) 1) ?x2642))))
 (let ((?x4087 (ite $x4594 182 181)))
 (let (($x4355 (>= ?x2872 ?x4087)))
 (let ((?x3070 (ite $x4594 213 212)))
 (let (($x2400 (>= ?x2872 ?x3070)))
 (let ((?x4233 (ite $x2400 (+ (- ?x2872 ?x3070) 1) (ite $x4355 (+ (- ?x2872 ?x4087) 1) ?x4283))))
 (let ((?x3317 (ite $x4594 244 243)))
 (let (($x4359 (>= ?x2872 ?x3317)))
 (let ((?x3334 (ite $x4594 274 273)))
 (let (($x2234 (>= ?x2872 ?x3334)))
 (let ((?x4093 (ite $x2234 (+ (- ?x2872 ?x3334) 1) (ite $x4359 (+ (- ?x2872 ?x3317) 1) ?x4233))))
 (let ((?x3240 (ite $x4594 305 304)))
 (let (($x4316 (>= ?x2872 ?x3240)))
 (let ((?x3088 (ite $x4594 335 334)))
 (let (($x4317 (>= ?x2872 ?x3088)))
 (let ((?x1136 (ite $x4317 (+ (- ?x2872 ?x3088) 1) (ite $x4316 (+ (- ?x2872 ?x3240) 1) ?x4093))))
 (let (($x1067 (= 0 0)))
 (let ((?x3075 (ite $x1067 ?x4381 ?x1136)))
 (= x_plus_day ?x3075))))))))))))))))))))))))))))))))))))))))))))))))))))))))))))))))))))))))))))))))))))))))))))))))))))))))))
(assert
 (= y_epoch x_plus_epoch))
(assert
 (>= x_plus_1_epoch (- 36584)))
(assert
 (<= x_plus_1_epoch 36829))
(assert
 (= x_plus_1_epoch (+ x_epoch 365)))
(assert
 (not (= y_epoch x_plus_1_epoch)))
(assert
 (= x_epoch 7246))
(assert
 (= y_epoch 7612))
(assert
 (= x_plus_epoch 7612))
(assert
 (= x_plus_1_epoch 7611))
(check-sat)
